Minimize
    0 x0 + 1 x1 + 3 x2 + 3 x3 + 3 x4 + 8 x5 + 8 x6 + 10 x7 + 22 x8 + 29 x9 + 33 x10 + 43 x11 + 44 x12 + 45 x13 + 52 x14 + 54 x15 + 55 x16 + 57 x17 + 62 x18 + 78 x19 + 83 x20 + 83 x21 + 89 x22 + 96 x23 + 97 x24 + 122 x25 + 130 x26 + 150 x27 + 150 x28 + 153 x29 + 156 x30 + 157 x31 + 164 x32 + 168 x33 + 176 x34 + 176 x35 + 185 x36 + 191 x37 + 201 x38 + 207 x39 + 213 x40 + 213 x41 + 222 x42 + 224 x43 + 230 x44 + 237 x45 + 240 x46 + 249 x47
Subject To
    c0: 17 x0 + 74 x1 + 125 x2 + 111 x3 - 27 x4 + 102 x5 + 118 x6 + 100 x7 + 11 x8 - 45 x9 + 101 x10 + 21 x11 + 54 x12 - 4 x13 + 115 x14 - 66 x15 - 43 x16 - 45 x17 + 79 x18 + 45 x19 + 17 x20 + 121 x21 - 43 x22 + 40 x23 - 120 x24 - 59 x25 + 6 x26 - 107 x27 - 55 x28 + 46 x29 + 40 x30 + 46 x31 - 27 x32 + 29 x33 - 84 x34 + 87 x35 + 70 x36 - 18 x37 + 16 x38 - 76 x39 - 47 x40 - 10 x41 + 100 x42 - 12 x43 + 67 x44 + 63 x45 - 51 x46 + 53 x47 >= 371
    c1: -44 x0 - 112 x1 - 69 x2 + 20 x3 - 1 x4 + 3 x5 + 90 x6 + 108 x7 - 32 x8 + 40 x9 - 28 x10 - 52 x11 + 12 x12 + 124 x13 + 44 x14 - 109 x15 - 58 x16 + 115 x17 - 102 x18 - 59 x19 - 57 x20 + 90 x21 - 7 x22 + 31 x23 + 27 x24 + 8 x25 + 14 x26 - 8 x27 + 81 x28 + 32 x29 + 94 x30 - 29 x31 - 58 x32 - 123 x33 + 9 x34 + 57 x35 + 44 x36 - 18 x37 - 8 x38 - 70 x39 - 72 x40 + 60 x41 - 120 x42 - 60 x43 + 95 x44 + 41 x45 - 43 x46 - 55 x47 >= -252
    c2: 8 x0 - 114 x1 + 99 x2 + 68 x3 - 80 x4 - 9 x5 - 33 x6 - 30 x7 + 16 x8 - 35 x9 - 104 x10 + 59 x11 - 13 x12 - 69 x13 + 21 x14 - 81 x15 - 102 x16 + 83 x17 + 90 x18 + 80 x19 - 92 x20 - 128 x21 - 49 x22 + 90 x23 - 66 x24 - 80 x25 - 53 x26 - 113 x27 + 109 x28 + 124 x29 - 111 x30 - 125 x31 - 78 x32 + 51 x33 - 122 x34 + 13 x35 - 101 x36 - 101 x37 - 24 x38 + 12 x39 - 119 x40 + 44 x41 - 70 x42 - 36 x43 + 96 x44 + 55 x45 - 125 x46 - 75 x47 >= -880
    c3: -108 x0 + 16 x1 + 73 x2 - 60 x3 + 28 x4 + 87 x5 + 70 x6 - 46 x7 + 100 x8 + 25 x9 + 116 x10 - 70 x11 + 98 x12 + 54 x13 + 36 x14 - 112 x15 - 59 x16 + 115 x17 - 121 x18 + 99 x19 - 125 x20 - 65 x21 - 69 x22 + 37 x23 - 68 x24 - 110 x25 + 1 x26 + 115 x27 + 39 x28 + 88 x29 - 25 x30 - 49 x31 + 5 x32 - 98 x33 - 11 x34 - 102 x35 + 58 x36 + 47 x37 + 44 x38 + 89 x39 - 41 x40 + 88 x41 - 109 x42 - 64 x43 + 16 x44 - 120 x45 + 79 x46 + 63 x47 >= -311
    c4: -55 x0 - 28 x1 + 57 x2 + 21 x3 + 26 x4 - 118 x5 + 93 x6 - 95 x7 + 37 x8 + 28 x9 + 108 x10 - 52 x11 + 51 x12 - 119 x13 - 96 x14 + 124 x15 + 0 x16 - 91 x17 + 125 x18 + 116 x19 + 2 x20 - 91 x21 + 20 x22 + 123 x23 - 102 x24 + 48 x25 - 11 x26 - 77 x27 - 6 x28 + 71 x29 - 128 x30 + 105 x31 + 81 x32 + 53 x33 - 32 x34 + 97 x35 - 108 x36 + 81 x37 - 51 x38 + 2 x39 + 82 x40 - 103 x41 - 91 x42 - 100 x43 - 87 x44 + 10 x45 - 27 x46 - 69 x47 >= -625
    c5: 0 x0 - 6 x1 - 118 x2 - 8 x3 + 85 x4 - 14 x5 + 56 x6 - 36 x7 - 32 x8 - 50 x9 - 15 x10 + 5 x11 - 20 x12 - 25 x13 + 38 x14 + 38 x15 + 46 x16 + 123 x17 + 83 x18 - 41 x19 - 40 x20 + 127 x21 + 71 x22 - 36 x23 + 92 x24 + 96 x25 - 88 x26 + 35 x27 + 69 x28 + 127 x29 + 112 x30 - 19 x31 - 107 x32 - 27 x33 + 49 x34 + 121 x35 + 19 x36 - 101 x37 - 71 x38 + 126 x39 + 95 x40 + 59 x41 + 118 x42 - 78 x43 - 26 x44 - 38 x45 - 90 x46 - 12 x47 >= -359
    c6: -32 x0 + 65 x1 + 8 x2 - 85 x3 + 94 x4 - 49 x5 - 9 x6 + 23 x7 - 62 x8 + 46 x9 - 102 x10 - 75 x11 - 83 x12 + 61 x13 + 68 x14 + 78 x15 - 4 x16 - 37 x17 + 54 x18 + 39 x19 + 33 x20 + 84 x21 - 3 x22 - 70 x23 + 46 x24 - 125 x25 + 127 x26 - 64 x27 - 43 x28 - 113 x29 + 56 x30 - 120 x31 + 105 x32 - 50 x33 - 109 x34 - 31 x35 + 96 x36 + 113 x37 - 90 x38 - 64 x39 - 63 x40 + 68 x41 - 13 x42 + 115 x43 + 119 x44 + 23 x45 - 64 x46 + 87 x47 >= -291
    c7: 9 x0 - 90 x1 - 75 x2 - 3 x3 - 113 x4 - 58 x5 + 107 x6 + 20 x7 + 12 x8 + 54 x9 + 101 x10 - 40 x11 + 82 x12 - 121 x13 - 1 x14 + 27 x15 - 42 x16 + 67 x17 - 29 x18 + 109 x19 + 7 x20 - 89 x21 + 112 x22 + 17 x23 - 44 x24 - 126 x25 - 44 x26 - 89 x27 - 75 x28 + 112 x29 - 32 x30 - 26 x31 + 24 x32 - 78 x33 + 105 x34 + 86 x35 + 19 x36 + 11 x37 + 14 x38 + 100 x39 + 102 x40 + 96 x41 + 118 x42 - 87 x43 + 102 x44 + 111 x45 + 94 x46 - 25 x47 >= -65
    c8: 48 x0 - 76 x1 - 12 x2 + 53 x3 + 45 x4 - 119 x5 + 9 x6 + 77 x7 + 27 x8 + 26 x9 - 90 x10 + 2 x11 - 72 x12 - 22 x13 - 86 x14 - 104 x15 - 71 x16 - 121 x17 + 109 x18 - 79 x19 + 108 x20 - 87 x21 + 114 x22 + 82 x23 - 34 x24 + 72 x25 + 105 x26 + 37 x27 + 81 x28 + 4 x29 - 53 x30 + 117 x31 - 121 x32 - 119 x33 - 33 x34 - 124 x35 + 109 x36 - 21 x37 - 30 x38 - 28 x39 - 19 x40 + 69 x41 - 3 x42 + 122 x43 + 124 x44 - 22 x45 + 66 x46 - 18 x47 >= -489
    c9: -83 x0 + 28 x1 + 51 x2 + 90 x3 + 102 x4 - 7 x5 + 62 x6 + 66 x7 - 61 x8 + 67 x9 + 87 x10 + 124 x11 + 93 x12 + 22 x13 + 8 x14 + 88 x15 + 121 x16 + 127 x17 + 116 x18 + 75 x19 + 83 x20 + 11 x21 + 99 x22 + 74 x23 + 63 x24 - 119 x25 + 10 x26 - 42 x27 + 126 x28 + 41 x29 + 97 x30 - 30 x31 + 116 x32 - 24 x33 - 61 x34 - 47 x35 - 70 x36 - 48 x37 + 16 x38 + 101 x39 - 79 x40 + 42 x41 - 105 x42 - 99 x43 - 78 x44 + 65 x45 - 70 x46 - 83 x47 >= 170
    c10: 99 x0 + 59 x1 + 58 x2 + 111 x3 - 4 x4 + 99 x5 + 75 x6 - 33 x7 - 52 x8 + 116 x9 - 67 x10 + 120 x11 + 11 x12 + 25 x13 - 44 x14 - 118 x15 + 82 x16 - 47 x17 + 50 x18 - 120 x19 - 115 x20 - 83 x21 - 82 x22 + 38 x23 - 87 x24 + 73 x25 + 68 x26 - 109 x27 + 104 x28 + 21 x29 - 103 x30 - 34 x31 - 103 x32 - 37 x33 - 101 x34 + 72 x35 + 98 x36 + 109 x37 + 59 x38 + 39 x39 - 106 x40 - 47 x41 + 1 x42 - 36 x43 + 64 x44 - 49 x45 - 71 x46 - 108 x47 >= -451
    c11: 105 x0 - 77 x1 - 76 x2 + 67 x3 + 12 x4 + 12 x5 - 66 x6 + 33 x7 - 78 x8 + 16 x9 - 123 x10 - 50 x11 - 79 x12 - 71 x13 + 75 x14 + 58 x15 - 121 x16 + 69 x17 + 11 x18 + 80 x19 + 69 x20 + 35 x21 + 108 x22 - 67 x23 + 8 x24 - 49 x25 + 1 x26 + 118 x27 + 50 x28 - 3 x29 + 91 x30 - 25 x31 + 4 x32 - 76 x33 - 79 x34 - 8 x35 - 67 x36 + 94 x37 + 112 x38 - 98 x39 - 63 x40 + 32 x41 + 71 x42 + 3 x43 + 34 x44 + 10 x45 - 30 x46 + 43 x47 >= -278
    c12: -103 x0 - 79 x1 - 37 x2 + 63 x3 - 14 x4 - 64 x5 - 73 x6 - 107 x7 - 91 x8 - 107 x9 - 27 x10 - 79 x11 - 88 x12 - 28 x13 + 0 x14 + 20 x15 - 42 x16 + 12 x17 - 106 x18 + 31 x19 + 55 x20 + 127 x21 - 119 x22 + 12 x23 + 96 x24 - 117 x25 - 61 x26 - 33 x27 - 104 x28 + 78 x29 + 49 x30 - 78 x31 - 54 x32 + 100 x33 - 13 x34 + 61 x35 + 127 x36 + 82 x37 + 65 x38 - 3 x39 + 54 x40 - 20 x41 - 53 x42 + 97 x43 - 121 x44 + 86 x45 + 34 x46 - 115 x47 >= -720
    c13: 107 x0 - 36 x1 - 124 x2 - 106 x3 - 11 x4 - 108 x5 + 14 x6 - 56 x7 - 21 x8 + 89 x9 + 121 x10 - 28 x11 + 41 x12 + 80 x13 - 41 x14 - 122 x15 + 92 x16 - 111 x17 - 80 x18 - 63 x19 - 31 x20 - 34 x21 - 86 x22 - 54 x23 - 3 x24 - 20 x25 - 34 x26 + 120 x27 + 8 x28 - 7 x29 - 40 x30 - 4 x31 + 25 x32 - 21 x33 - 41 x34 - 128 x35 + 104 x36 + 72 x37 + 126 x38 - 8 x39 - 115 x40 - 28 x41 - 9 x42 - 109 x43 + 65 x44 + 27 x45 + 62 x46 + 2 x47 >= -718
    c14: 2 x0 + 89 x1 - 53 x2 - 105 x3 + 36 x4 - 63 x5 - 31 x6 - 79 x7 - 54 x8 - 85 x9 - 84 x10 - 46 x11 + 110 x12 - 106 x13 + 47 x14 + 83 x15 - 32 x16 - 101 x17 - 115 x18 + 73 x19 + 50 x20 - 59 x21 - 115 x22 + 24 x23 + 77 x24 - 115 x25 + 18 x26 - 5 x27 + 11 x28 - 46 x29 - 11 x30 - 12 x31 + 55 x32 + 30 x33 + 30 x34 - 28 x35 - 17 x36 - 110 x37 + 115 x38 - 23 x39 - 7 x40 - 28 x41 + 110 x42 + 120 x43 + 16 x44 + 54 x45 - 81 x46 - 109 x47 >= -803
    c15: -45 x0 - 38 x1 + 13 x2 + 77 x3 - 111 x4 + 27 x5 - 17 x6 - 73 x7 - 122 x8 + 77 x9 - 123 x10 + 32 x11 + 67 x12 + 2 x13 + 113 x14 + 88 x15 + 57 x16 - 27 x17 - 7 x18 + 3 x19 + 119 x20 - 20 x21 - 16 x22 - 75 x23 - 24 x24 - 3 x25 + 101 x26 + 118 x27 - 2 x28 - 75 x29 + 126 x30 + 64 x31 - 51 x32 - 51 x33 + 51 x34 + 101 x35 - 76 x36 - 70 x37 + 92 x38 + 96 x39 - 40 x40 + 88 x41 - 7 x42 + 122 x43 + 17 x44 - 44 x45 + 1 x46 + 101 x47 >= -299
    c16: 10 x0 - 81 x1 - 18 x2 - 51 x3 + 70 x4 - 29 x5 - 22 x6 + 7 x7 + 89 x8 + 61 x9 - 78 x10 + 20 x11 - 122 x12 + 11 x13 + 45 x14 + 5 x15 + 124 x16 - 39 x17 - 105 x18 - 37 x19 + 75 x20 - 7 x21 - 1 x22 - 50 x23 + 20 x24 - 114 x25 + 108 x26 - 29 x27 + 15 x28 + 4 x29 + 33 x30 + 115 x31 - 77 x32 - 126 x33 + 94 x34 - 82 x35 + 126 x36 - 28 x37 - 73 x38 - 21 x39 + 54 x40 + 2 x41 - 23 x42 + 60 x43 + 96 x44 + 43 x45 - 79 x46 + 105 x47 >= -111
    c17: 28 x0 - 37 x1 - 124 x2 - 75 x3 - 9 x4 - 31 x5 + 11 x6 + 23 x7 + 19 x8 + 34 x9 + 6 x10 + 122 x11 - 4 x12 + 33 x13 - 116 x14 - 60 x15 - 67 x16 - 104 x17 - 120 x18 + 73 x19 + 55 x20 - 70 x21 + 43 x22 + 13 x23 - 52 x24 - 56 x25 + 59 x26 + 44 x27 - 110 x28 - 53 x29 - 84 x30 + 48 x31 + 46 x32 + 71 x33 - 58 x34 + 102 x35 + 67 x36 + 36 x37 - 33 x38 - 87 x39 + 4 x40 + 72 x41 + 122 x42 - 58 x43 - 21 x44 + 117 x45 + 9 x46 - 79 x47 >= -569
    c18: -42 x0 + 99 x1 - 55 x2 - 62 x3 + 56 x4 - 118 x5 - 40 x6 + 27 x7 + 9 x8 - 60 x9 + 15 x10 + 83 x11 - 124 x12 - 88 x13 + 71 x14 + 70 x15 - 31 x16 + 105 x17 - 64 x18 + 55 x19 - 36 x20 - 12 x21 + 50 x22 + 119 x23 - 26 x24 - 25 x25 - 28 x26 + 80 x27 + 87 x28 + 75 x29 - 45 x30 - 47 x31 - 39 x32 - 60 x33 - 92 x34 - 27 x35 + 114 x36 - 59 x37 + 49 x38 - 64 x39 + 37 x40 - 63 x41 + 0 x42 + 61 x43 - 70 x44 + 73 x45 + 4 x46 - 70 x47 >= -338
    c19: -26 x0 + 44 x1 + 26 x2 - 105 x3 + 19 x4 - 27 x5 + 96 x6 + 95 x7 + 101 x8 - 100 x9 - 61 x10 - 72 x11 - 3 x12 - 72 x13 - 115 x14 - 122 x15 - 90 x16 + 67 x17 - 61 x18 + 84 x19 + 125 x20 - 39 x21 - 66 x22 - 74 x23 + 102 x24 - 70 x25 + 32 x26 + 38 x27 + 93 x28 + 73 x29 + 105 x30 - 40 x31 - 46 x32 - 79 x33 - 86 x34 - 43 x35 + 17 x36 + 116 x37 + 124 x38 + 103 x39 + 86 x40 + 72 x41 + 74 x42 - 68 x43 + 89 x44 - 116 x45 - 59 x46 + 122 x47 >= -298
    c20: 10 x0 + 22 x1 - 2 x2 - 60 x3 + 124 x4 + 98 x5 - 92 x6 - 51 x7 - 14 x8 - 22 x9 - 20 x10 + 24 x11 - 85 x12 + 71 x13 + 33 x14 + 28 x15 + 87 x16 - 106 x17 + 56 x18 - 8 x19 + 98 x20 + 19 x21 + 48 x22 - 101 x23 + 118 x24 - 59 x25 - 53 x26 - 96 x27 - 128 x28 + 19 x29 + 81 x30 - 29 x31 - 86 x32 - 72 x33 - 35 x34 - 54 x35 + 21 x36 - 123 x37 + 22 x38 + 58 x39 - 109 x40 - 54 x41 - 64 x42 + 95 x43 - 8 x44 - 54 x45 + 105 x46 - 31 x47 >= -561
    c21: -21 x0 + 50 x1 + 21 x2 + 62 x3 - 99 x4 - 70 x5 - 76 x6 + 83 x7 + 76 x8 + 66 x9 + 123 x10 + 39 x11 + 65 x12 + 83 x13 - 60 x14 + 116 x15 - 34 x16 + 16 x17 + 72 x18 - 89 x19 - 34 x20 + 30 x21 - 106 x22 + 54 x23 + 107 x24 + 103 x25 + 108 x26 + 124 x27 + 115 x28 + 116 x29 - 118 x30 + 104 x31 - 120 x32 - 50 x33 + 46 x34 + 23 x35 - 121 x36 + 75 x37 + 35 x38 + 38 x39 - 59 x40 - 67 x41 + 14 x42 + 102 x43 - 25 x44 - 6 x45 - 48 x46 - 29 x47 >= 39
    c22: -87 x0 - 35 x1 + 127 x2 + 111 x3 - 66 x4 + 44 x5 - 80 x6 + 109 x7 + 39 x8 + 74 x9 - 29 x10 - 43 x11 + 78 x12 - 4 x13 - 76 x14 - 105 x15 - 7 x16 - 26 x17 + 60 x18 + 84 x19 + 31 x20 - 77 x21 - 34 x22 + 33 x23 + 111 x24 + 109 x25 - 104 x26 - 70 x27 + 16 x28 - 95 x29 - 23 x30 + 51 x31 + 46 x32 - 70 x33 + 23 x34 - 14 x35 - 71 x36 - 98 x37 + 82 x38 + 95 x39 - 87 x40 + 83 x41 - 100 x42 - 11 x43 - 16 x44 + 29 x45 - 100 x46 - 117 x47 >= -533
    c23: -19 x0 + 126 x1 + 4 x2 - 74 x3 - 82 x4 + 35 x5 + 25 x6 - 42 x7 + 97 x8 + 51 x9 - 9 x10 - 124 x11 - 104 x12 + 3 x13 + 84 x14 + 74 x15 + 5 x16 - 128 x17 + 62 x18 - 92 x19 + 46 x20 + 11 x21 - 2 x22 + 15 x23 + 84 x24 + 20 x25 - 88 x26 + 6 x27 - 15 x28 - 11 x29 + 58 x30 - 117 x31 + 90 x32 - 93 x33 + 62 x34 + 86 x35 - 9 x36 - 109 x37 - 35 x38 - 105 x39 - 87 x40 - 92 x41 + 17 x42 - 88 x43 + 56 x44 + 26 x45 - 109 x46 - 41 x47 >= -759
    c24: 51 x0 + 69 x1 + 8 x2 + 86 x3 + 37 x4 + 43 x5 + 17 x6 - 59 x7 + 107 x8 - 79 x9 + 64 x10 + 89 x11 + 103 x12 - 13 x13 - 124 x14 - 10 x15 + 45 x16 - 2 x17 - 106 x18 + 118 x19 - 31 x20 + 99 x21 - 74 x22 - 40 x23 - 123 x24 + 93 x25 - 1 x26 + 67 x27 - 27 x28 - 100 x29 + 63 x30 - 27 x31 - 32 x32 + 35 x33 - 42 x34 - 103 x35 - 29 x36 + 111 x37 - 13 x38 + 69 x39 + 50 x40 + 28 x41 - 39 x42 - 23 x43 + 120 x44 + 18 x45 - 85 x46 - 56 x47 >= -102
    c25: 114 x0 - 108 x1 + 65 x2 + 5 x3 + 42 x4 + 25 x5 - 87 x6 - 60 x7 - 114 x8 - 117 x9 + 75 x10 + 57 x11 + 25 x12 - 21 x13 + 60 x14 - 104 x15 + 81 x16 - 19 x17 - 73 x18 + 5 x19 - 49 x20 - 117 x21 - 74 x22 + 32 x23 + 71 x24 + 89 x25 - 63 x26 + 34 x27 + 86 x28 - 122 x29 - 82 x30 + 116 x31 - 108 x32 - 68 x33 - 118 x34 - 86 x35 + 10 x36 - 97 x37 + 72 x38 - 119 x39 - 88 x40 + 104 x41 + 63 x42 + 31 x43 - 68 x44 - 54 x45 + 11 x46 - 11 x47 >= -622
    c26: -39 x0 + 12 x1 - 45 x2 - 49 x3 + 46 x4 - 82 x5 + 120 x6 - 127 x7 - 30 x8 + 86 x9 + 80 x10 - 11 x11 + 24 x12 - 85 x13 + 84 x14 - 73 x15 + 30 x16 - 85 x17 - 24 x18 + 22 x19 + 67 x20 + 32 x21 + 43 x22 - 29 x23 - 98 x24 - 106 x25 - 112 x26 - 64 x27 + 76 x28 - 125 x29 - 59 x30 + 114 x31 - 70 x32 - 86 x33 + 86 x34 + 126 x35 - 54 x36 - 49 x37 + 8 x38 - 59 x39 + 24 x40 - 84 x41 + 2 x42 + 21 x43 + 79 x44 - 19 x45 - 15 x46 + 69 x47 >= -604
    c27: -4 x0 - 45 x1 - 47 x2 - 6 x3 - 41 x4 - 42 x5 + 35 x6 + 96 x7 + 68 x8 - 78 x9 - 63 x10 + 113 x11 + 88 x12 - 96 x13 - 50 x14 - 22 x15 + 21 x16 + 81 x17 - 98 x18 + 32 x19 + 51 x20 - 116 x21 + 55 x22 + 83 x23 - 45 x24 + 91 x25 - 95 x26 + 121 x27 - 36 x28 - 103 x29 - 29 x30 - 60 x31 - 127 x32 - 124 x33 - 116 x34 - 83 x35 - 50 x36 + 63 x37 - 25 x38 + 60 x39 - 16 x40 + 94 x41 - 44 x42 - 33 x43 + 7 x44 - 101 x45 + 104 x46 - 31 x47 >= -702
    c28: 62 x0 - 5 x1 - 65 x2 + 54 x3 + 81 x4 + 13 x5 + 20 x6 - 95 x7 - 57 x8 + 74 x9 + 49 x10 - 89 x11 - 37 x12 - 125 x13 - 108 x14 + 84 x15 - 39 x16 - 127 x17 + 81 x18 - 112 x19 + 126 x20 + 98 x21 - 6 x22 + 112 x23 + 39 x24 + 30 x25 + 44 x26 - 12 x27 - 30 x28 - 107 x29 - 93 x30 + 76 x31 - 89 x32 - 41 x33 - 71 x34 - 47 x35 + 0 x36 - 126 x37 - 12 x38 + 10 x39 - 37 x40 + 27 x41 + 19 x42 - 7 x43 - 36 x44 - 102 x45 - 62 x46 - 121 x47 >= -753
    c29: -18 x0 + 16 x1 + 69 x2 + 75 x3 + 76 x4 - 11 x5 - 119 x6 - 58 x7 - 83 x8 + 33 x9 - 23 x10 - 70 x11 - 123 x12 - 95 x13 - 53 x14 + 38 x15 - 3 x16 - 95 x17 - 78 x18 + 124 x19 - 106 x20 + 121 x21 - 11 x22 + 28 x23 + 54 x24 + 19 x25 - 12 x26 + 103 x27 - 103 x28 + 7 x29 - 34 x30 - 82 x31 - 10 x32 + 120 x33 - 86 x34 + 62 x35 - 5 x36 + 82 x37 - 92 x38 - 73 x39 + 59 x40 + 61 x41 + 17 x42 - 8 x43 - 93 x44 + 116 x45 + 9 x46 + 112 x47 >= -541
    c30: 68 x0 + 97 x1 - 98 x2 + 126 x3 - 18 x4 + 31 x5 + 85 x6 + 117 x7 - 85 x8 + 123 x9 + 89 x10 + 105 x11 + 88 x12 + 88 x13 - 124 x14 - 109 x15 - 4 x16 - 25 x17 - 85 x18 - 68 x19 + 25 x20 + 28 x21 + 121 x22 + 92 x23 - 92 x24 - 69 x25 + 97 x26 + 30 x27 - 25 x28 + 118 x29 - 64 x30 - 105 x31 - 87 x32 + 59 x33 + 38 x34 - 42 x35 - 104 x36 + 54 x37 - 91 x38 + 78 x39 - 94 x40 + 37 x41 - 14 x42 - 13 x43 + 126 x44 + 68 x45 + 53 x46 - 102 x47 >= 125
    c31: -62 x0 - 67 x1 - 117 x2 - 114 x3 + 120 x4 + 92 x5 + 63 x6 - 92 x7 - 95 x8 + 114 x9 + 124 x10 - 63 x11 + 59 x12 - 61 x13 + 95 x14 + 58 x15 + 49 x16 - 117 x17 + 114 x18 - 44 x19 + 39 x20 - 121 x21 + 55 x22 + 95 x23 - 59 x24 - 5 x25 + 83 x26 + 115 x27 - 24 x28 - 61 x29 - 65 x30 - 36 x31 + 102 x32 - 26 x33 + 74 x34 + 109 x35 - 36 x36 + 72 x37 - 30 x38 + 77 x39 - 51 x40 + 59 x41 - 62 x42 - 99 x43 + 26 x44 + 59 x45 + 74 x46 - 60 x47 >= -223
    c32: -112 x0 - 44 x1 - 37 x2 - 42 x3 + 35 x4 + 105 x5 - 41 x6 + 119 x7 - 107 x8 - 56 x9 - 111 x10 - 42 x11 - 96 x12 - 63 x13 - 14 x14 + 0 x15 - 120 x16 + 48 x17 + 50 x18 + 74 x19 + 21 x20 + 49 x21 - 34 x22 + 61 x23 + 94 x24 + 59 x25 - 128 x26 + 38 x27 + 51 x28 - 104 x29 + 91 x30 + 115 x31 - 39 x32 + 110 x33 - 53 x34 - 38 x35 + 69 x36 + 107 x37 + 5 x38 - 47 x39 - 41 x40 - 55 x41 - 72 x42 - 2 x43 + 97 x44 - 66 x45 + 123 x46 - 16 x47 >= -525
    c33: 118 x0 - 80 x1 + 101 x2 + 81 x3 - 61 x4 - 108 x5 + 5 x6 + 5 x7 + 26 x8 - 45 x9 - 14 x10 + 106 x11 + 88 x12 - 101 x13 + 91 x14 + 31 x15 + 99 x16 - 2 x17 - 33 x18 + 37 x19 + 51 x20 - 85 x21 - 108 x22 - 81 x23 - 37 x24 - 26 x25 + 5 x26 + 57 x27 - 119 x28 + 100 x29 - 6 x30 - 107 x31 + 60 x32 - 92 x33 + 82 x34 + 23 x35 - 92 x36 + 95 x37 + 18 x38 + 123 x39 + 38 x40 + 101 x41 - 57 x42 + 73 x43 - 64 x44 - 115 x45 + 62 x46 + 79 x47 >= -103
    c34: 0 x0 - 62 x1 - 117 x2 + 7 x3 + 107 x4 + 42 x5 - 8 x6 - 97 x7 + 110 x8 + 42 x9 - 78 x10 - 22 x11 + 122 x12 - 58 x13 - 20 x14 - 117 x15 + 107 x16 + 78 x17 - 124 x18 - 103 x19 - 42 x20 - 102 x21 - 14 x22 + 4 x23 - 75 x24 - 108 x25 + 116 x26 + 109 x27 - 99 x28 - 14 x29 + 49 x30 - 51 x31 + 33 x32 - 25 x33 - 9 x34 - 37 x35 + 61 x36 + 82 x37 - 78 x38 + 90 x39 - 127 x40 + 12 x41 + 85 x42 - 9 x43 + 36 x44 + 99 x45 - 60 x46 - 30 x47 >= -374
    c35: -10 x0 - 31 x1 + 30 x2 - 61 x3 + 47 x4 - 77 x5 + 84 x6 + 44 x7 - 116 x8 - 44 x9 - 84 x10 + 30 x11 - 60 x12 - 128 x13 - 128 x14 - 88 x15 + 23 x16 + 85 x17 - 68 x18 - 26 x19 - 59 x20 + 65 x21 + 7 x22 - 103 x23 - 92 x24 + 23 x25 + 116 x26 + 74 x27 + 110 x28 - 47 x29 + 15 x30 - 126 x31 + 35 x32 + 9 x33 - 125 x34 + 58 x35 - 42 x36 - 8 x37 + 86 x38 + 70 x39 - 117 x40 + 13 x41 - 111 x42 + 97 x43 - 88 x44 + 34 x45 - 99 x46 + 60 x47 >= -696
    c36: 72 x0 + 102 x1 - 2 x2 + 53 x3 - 87 x4 - 115 x5 + 107 x6 - 96 x7 + 88 x8 + 81 x9 - 86 x10 + 31 x11 - 30 x12 + 46 x13 + 81 x14 + 72 x15 + 113 x16 + 80 x17 - 93 x18 + 96 x19 + 57 x20 + 115 x21 - 119 x22 - 128 x23 - 1 x24 + 76 x25 + 115 x26 + 8 x27 + 117 x28 + 90 x29 + 93 x30 - 33 x31 + 36 x32 + 27 x33 - 110 x34 - 15 x35 - 62 x36 - 46 x37 + 103 x38 + 46 x39 - 39 x40 + 90 x41 - 75 x42 - 113 x43 - 26 x44 - 4 x45 + 98 x46 + 76 x47 >= -245
    c37: 51 x0 + 72 x1 - 71 x2 + 9 x3 - 20 x4 - 92 x5 - 3 x6 + 107 x7 - 33 x8 + 31 x9 - 125 x10 + 66 x11 - 1 x12 + 7 x13 + 65 x14 - 25 x15 + 48 x16 + 119 x17 - 27 x18 - 26 x19 + 80 x20 + 91 x21 + 125 x22 - 26 x23 - 69 x24 + 57 x25 + 114 x26 - 51 x27 + 117 x28 + 37 x29 + 99 x30 - 22 x31 - 64 x32 + 120 x33 + 53 x34 + 115 x35 - 74 x36 - 121 x37 + 71 x38 - 100 x39 + 61 x40 + 95 x41 + 79 x42 + 22 x43 - 82 x44 + 81 x45 - 74 x46 + 41 x47 >= -138
    c38: -97 x0 - 109 x1 + 42 x2 + 40 x3 + 48 x4 + 80 x5 + 100 x6 - 61 x7 - 37 x8 + 44 x9 - 61 x10 - 62 x11 - 113 x12 + 36 x13 - 93 x14 - 37 x15 + 50 x16 + 116 x17 + 125 x18 + 92 x19 + 68 x20 - 125 x21 - 128 x22 - 92 x23 - 8 x24 - 23 x25 + 38 x26 + 123 x27 - 82 x28 - 69 x29 - 74 x30 - 98 x31 + 11 x32 + 4 x33 - 34 x34 + 60 x35 + 4 x36 + 53 x37 + 77 x38 + 99 x39 - 2 x40 - 57 x41 - 99 x42 - 57 x43 - 86 x44 - 16 x45 - 46 x46 - 51 x47 >= -734
    c39: -16 x0 + 25 x1 - 35 x2 - 55 x3 + 97 x4 - 84 x5 - 125 x6 + 60 x7 - 97 x8 + 8 x9 - 100 x10 - 60 x11 - 128 x12 - 23 x13 - 7 x14 + 26 x15 - 55 x16 + 76 x17 + 26 x18 - 34 x19 - 88 x20 - 67 x21 + 121 x22 + 67 x23 - 107 x24 - 125 x25 - 85 x26 + 9 x27 - 112 x28 + 79 x29 - 1 x30 + 22 x31 + 56 x32 + 116 x33 - 14 x34 - 101 x35 - 111 x36 + 40 x37 + 49 x38 - 54 x39 + 36 x40 + 55 x41 - 31 x42 - 82 x43 + 9 x44 + 49 x45 - 48 x46 + 123 x47 >= -742
    c40: 46 x0 - 126 x1 - 24 x2 - 67 x3 + 57 x4 - 3 x5 - 108 x6 - 58 x7 - 114 x8 - 58 x9 + 119 x10 + 43 x11 + 29 x12 - 83 x13 + 123 x14 - 66 x15 + 62 x16 - 81 x17 - 106 x18 - 108 x19 + 64 x20 - 29 x21 + 26 x22 + 82 x23 + 104 x24 + 56 x25 - 60 x26 - 63 x27 + 7 x28 - 27 x29 + 3 x30 - 26 x31 + 25 x32 - 125 x33 - 64 x34 + 4 x35 + 71 x36 - 21 x37 + 25 x38 + 85 x39 - 114 x40 + 115 x41 + 18 x42 - 108 x43 - 15 x44 + 45 x45 + 34 x46 + 54 x47 >= -525
    c41: 95 x0 - 4 x1 - 22 x2 + 52 x3 - 22 x4 + 70 x5 - 6 x6 - 105 x7 + 58 x8 + 47 x9 + 35 x10 - 76 x11 + 9 x12 - 67 x13 + 79 x14 + 9 x15 - 35 x16 - 9 x17 + 29 x18 - 17 x19 + 98 x20 + 15 x21 - 6 x22 + 14 x23 - 122 x24 + 122 x25 + 94 x26 - 61 x27 + 126 x28 + 47 x29 + 109 x30 - 4 x31 - 3 x32 + 72 x33 + 16 x34 + 22 x35 + 102 x36 - 111 x37 - 29 x38 + 14 x39 - 44 x40 + 114 x41 + 84 x42 + 87 x43 - 33 x44 - 101 x45 + 54 x46 + 90 x47 >= 242
    c42: 107 x0 - 62 x1 + 17 x2 + 110 x3 - 110 x4 + 50 x5 + 9 x6 - 91 x7 + 19 x8 + 38 x9 - 125 x10 - 13 x11 + 41 x12 - 9 x13 - 24 x14 + 31 x15 + 121 x16 - 5 x17 - 92 x18 + 53 x19 + 68 x20 - 87 x21 + 121 x22 + 20 x23 - 116 x24 - 1 x25 + 26 x26 - 107 x27 + 52 x28 - 22 x29 + 116 x30 - 109 x31 + 21 x32 + 77 x33 + 71 x34 + 114 x35 + 51 x36 + 127 x37 + 118 x38 - 112 x39 + 49 x40 + 66 x41 + 70 x42 - 91 x43 - 99 x44 - 73 x45 + 28 x46 + 16 x47 >= -66
    c43: -4 x0 + 26 x1 + 61 x2 + 51 x3 + 103 x4 - 38 x5 - 87 x6 - 116 x7 + 105 x8 - 15 x9 + 123 x10 + 86 x11 + 102 x12 - 59 x13 + 45 x14 - 119 x15 - 45 x16 - 80 x17 - 54 x18 + 13 x19 + 95 x20 + 70 x21 + 77 x22 + 91 x23 + 4 x24 - 80 x25 - 87 x26 - 14 x27 + 95 x28 - 14 x29 + 48 x30 - 14 x31 + 53 x32 - 25 x33 - 122 x34 + 118 x35 - 37 x36 - 124 x37 - 47 x38 - 128 x39 - 61 x40 + 83 x41 - 24 x42 - 73 x43 + 127 x44 + 93 x45 - 6 x46 + 28 x47 >= -237
    c44: -44 x0 - 99 x1 + 46 x2 + 7 x3 + 65 x4 - 44 x5 - 45 x6 + 86 x7 - 13 x8 + 102 x9 - 100 x10 - 16 x11 + 118 x12 - 93 x13 + 109 x14 + 17 x15 - 106 x16 - 20 x17 - 43 x18 + 60 x19 + 96 x20 + 108 x21 + 79 x22 + 89 x23 + 26 x24 + 99 x25 + 122 x26 + 74 x27 + 3 x28 - 100 x29 + 44 x30 - 28 x31 - 127 x32 - 100 x33 - 23 x34 - 50 x35 - 94 x36 + 99 x37 + 29 x38 - 86 x39 + 77 x40 + 96 x41 + 29 x42 - 70 x43 - 18 x44 + 86 x45 + 117 x46 - 62 x47 >= -243
    c45: -34 x0 + 87 x1 - 107 x2 + 101 x3 - 97 x4 - 4 x5 - 99 x6 + 15 x7 + 34 x8 + 19 x9 - 100 x10 - 91 x11 - 24 x12 - 69 x13 + 39 x14 + 17 x15 - 100 x16 - 98 x17 - 45 x18 - 93 x19 + 115 x20 - 128 x21 + 21 x22 - 124 x23 + 12 x24 - 17 x25 - 61 x26 + 28 x27 - 76 x28 - 105 x29 + 64 x30 + 28 x31 + 79 x32 - 28 x33 - 32 x34 - 23 x35 - 43 x36 + 27 x37 + 92 x38 - 23 x39 - 100 x40 + 96 x41 - 122 x42 + 119 x43 - 59 x44 + 76 x45 - 19 x46 + 110 x47 >= -867
    c46: 45 x0 - 7 x1 - 58 x2 + 103 x3 - 58 x4 + 16 x5 - 124 x6 - 35 x7 - 93 x8 + 52 x9 - 13 x10 - 80 x11 - 80 x12 - 37 x13 + 31 x14 - 112 x15 + 114 x16 + 123 x17 + 13 x18 - 45 x19 - 18 x20 - 54 x21 + 25 x22 + 112 x23 - 117 x24 - 107 x25 - 71 x26 - 67 x27 + 121 x28 + 24 x29 - 25 x30 - 92 x31 - 59 x32 + 112 x33 + 104 x34 + 4 x35 + 20 x36 - 33 x37 - 100 x38 + 17 x39 + 88 x40 - 44 x41 + 59 x42 + 33 x43 + 4 x44 - 6 x45 - 38 x46 + 23 x47 >= -512
    c47: -98 x0 - 49 x1 - 111 x2 - 81 x3 - 56 x4 - 43 x5 + 70 x6 - 106 x7 - 27 x8 - 21 x9 - 108 x10 + 106 x11 + 87 x12 - 103 x13 - 3 x14 + 106 x15 + 109 x16 + 3 x17 - 24 x18 + 57 x19 + 0 x20 - 30 x21 - 73 x22 + 14 x23 - 46 x24 - 1 x25 - 36 x26 - 46 x27 + 104 x28 - 8 x29 - 28 x30 - 97 x31 + 26 x32 + 28 x33 + 12 x34 - 47 x35 - 14 x36 - 23 x37 - 82 x38 + 107 x39 + 3 x40 - 31 x41 + 34 x42 + 65 x43 - 57 x44 + 89 x45 + 61 x46 - 10 x47 >= -487
Binary
    x0 x1 x2 x3 x4 x5 x6 x7 x8 x9 x10 x11 x12 x13 x14 x15 x16 x17 x18 x19 x20 x21 x22 x23 x24 x25 x26 x27 x28 x29 x30 x31 x32 x33 x34 x35 x36 x37 x38 x39 x40 x41 x42 x43 x44 x45 x46 x47
End
